NAME : E151A15r.3044.tour
COMMENT : Cost = 0_3044
COMMENT : Found by LKH [Keld Helsgaun] Sun May  7 02:13:11 2017
TYPE : TOUR
DIMENSION : 165
TOUR_SECTION
1
14
13
12
9
16
101
107
151
95
97
96
94
91
88
86
78
77
165
64
57
55
63
56
61
154
138
81
93
90
80
79
84
83
82
92
87
89
76
155
53
60
54
160
133
135
126
121
128
124
30
38
35
37
162
28
34
20
36
23
22
19
156
150
140
145
85
143
148
141
142
149
139
146
159
62
130
70
71
69
66
72
75
67
40
47
157
110
99
98
112
164
134
74
73
68
118
115
114
125
120
116
136
152
113
106
104
100
102
109
105
8
5
11
4
10
18
6
17
3
144
147
158
21
29
27
32
33
31
24
25
26
65
163
59
42
46
43
49
51
50
48
41
39
44
45
52
58
153
137
131
132
119
127
129
117
123
122
161
108
103
111
7
2
15
-1
EOF
